coords = array2d(1..41, 1..2, [538, 263, 167, 99, 481, 483, 192, 945, 612, 78,
    64, 318, 694, 87, 688, 524, 160, 108, 607, 76, 886, 156, 273, 544,
    68, 105, 821, 211, 350, 959, 840, 174, 306, 811, 239, 571, 310,
    939, 442, 462, 715, 62, 116, 101, 245, 845, 280, 755, 19, 745,
    239, 141, 588, 245, 345, 508, 729, 553, 196, 295, 741, 553, 626,
    720, 886, 642, 622, 784, 705, 656, 763, 627, 646, 163, 309, 208,
    583, 1000, 242, 942, 977, 174]);

n = 41;

